NAME : B-n13-k4
COMMENT : No of trucks: 4,
TYPE : CVRP
DIMENSION : 13
EDGE_WEIGHT_TYPE : EUC_2D
CAPACITY : 100
NODE_COORD_SECTION
1 23 27
2 24 6
3 46 29
4 14 19
5 14 32
6 0 34
7 16 22
8 20 26
9 22 28
10 17 23
11 48 30
12 30 8
13 17 76
DEMAND_SECTION
1 0
2 25
3 3
4 13
5 17
6 16
7 9
8 22
9 10
10 16
11 8
12 3
13 16
DEPOT_SECTION
 1
 -1
EOF
